 Si
   1.0
    10.9325257800000006    0.0000000000000000    0.0000000000000000
     0.0000000000000000   10.9325257800000006    0.0000000000000000
     0.0000000000000000    0.0000000000000000   10.9325257800000006
 Si
  64
Direct
   0.4402441051229792  0.4375000000000000  0.4375000000000000
   0.9375000000000001  0.4375000000000000  0.4375000000000000
   0.4375000000000000  0.9375000000000001  0.4375000000000000
   0.9394403753407474  0.9394403753407474  0.4375000000000000
   0.4375000000000000  0.4375000000000000  0.9375000000000001
   0.9375000000000001  0.4375000000000000  0.9375000000000001
   0.4375000000000000  0.9375000000000001  0.9375000000000001
   0.9375000000000001  0.9375000000000001  0.9375000000000001
   0.4375000000000000  0.1875000000000000  0.1875000000000000
   0.9375000000000001  0.1875000000000000  0.1875000000000000
   0.4375000000000000  0.6875000000000001  0.1875000000000000
   0.9375000000000001  0.6875000000000001  0.1875000000000000
   0.4375000000000000  0.1875000000000000  0.6875000000000001
   0.9375000000000001  0.1875000000000000  0.6875000000000001
   0.4375000000000000  0.6875000000000001  0.6875000000000001
   0.9375000000000001  0.6875000000000001  0.6875000000000001
   0.1875000000000000  0.4375000000000000  0.1875000000000000
   0.6875000000000001  0.4375000000000000  0.1875000000000000
   0.1875000000000000  0.9375000000000001  0.1875000000000000
   0.6875000000000001  0.9375000000000001  0.1875000000000000
   0.1875000000000000  0.4375000000000000  0.6875000000000001
   0.6875000000000001  0.4375000000000000  0.6875000000000001
   0.1875000000000000  0.9375000000000001  0.6875000000000001
   0.6875000000000001  0.9375000000000001  0.6875000000000001
   0.1875000000000000  0.1875000000000000  0.4375000000000000
   0.6875000000000001  0.1875000000000000  0.4375000000000000
   0.1875000000000000  0.6875000000000001  0.4375000000000000
   0.6875000000000001  0.6875000000000001  0.4375000000000000
   0.1875000000000000  0.1875000000000000  0.9375000000000001
   0.6875000000000001  0.1875000000000000  0.9375000000000001
   0.1875000000000000  0.6875000000000001  0.9375000000000001
   0.6875000000000001  0.6875000000000001  0.9375000000000001
   0.0625000000000000  0.0625000000000000  0.0625000000000000
   0.5625000000000001  0.0625000000000000  0.0625000000000000
   0.0625000000000000  0.5625000000000001  0.0625000000000000
   0.5625000000000001  0.5625000000000001  0.0625000000000000
   0.0625000000000000  0.0625000000000000  0.5625000000000001
   0.5625000000000001  0.0625000000000000  0.5625000000000001
   0.0625000000000000  0.5625000000000001  0.5625000000000001
   0.5625000000000001  0.5625000000000001  0.5625000000000001
   0.0625000000000000  0.3125000000000000  0.3125000000000000
   0.5625000000000001  0.3125000000000000  0.3125000000000000
   0.0625000000000000  0.8125000000000000  0.3125000000000000
   0.5625000000000001  0.8125000000000000  0.3125000000000000
   0.0625000000000000  0.3125000000000000  0.8125000000000000
   0.5625000000000001  0.3125000000000000  0.8125000000000000
   0.0625000000000000  0.8125000000000000  0.8125000000000000
   0.5625000000000001  0.8125000000000000  0.8125000000000000
   0.3125000000000000  0.0625000000000000  0.3125000000000000
   0.8125000000000000  0.0625000000000000  0.3125000000000000
   0.3125000000000000  0.5625000000000001  0.3125000000000000
   0.8125000000000000  0.5625000000000001  0.3125000000000000
   0.3125000000000000  0.0625000000000000  0.8125000000000000
   0.8125000000000000  0.0625000000000000  0.8125000000000000
   0.3125000000000000  0.5625000000000001  0.8125000000000000
   0.8125000000000000  0.5625000000000001  0.8125000000000000
   0.3125000000000000  0.3125000000000000  0.0625000000000000
   0.8125000000000000  0.3125000000000000  0.0625000000000000
   0.3125000000000000  0.8125000000000000  0.0625000000000000
   0.8125000000000000  0.8125000000000000  0.0625000000000000
   0.3125000000000000  0.3125000000000000  0.5625000000000001
   0.8125000000000000  0.3125000000000000  0.5625000000000001
   0.3125000000000000  0.8125000000000000  0.5625000000000001
   0.8125000000000000  0.8125000000000000  0.5625000000000001